
Gurobi 9.5.2 (linux64, Java) logging started gio 9 feb 2023, 00:56:42

Set parameter Username
Academic license - for non-commercial use only - expires 2023-12-01
Warning: Gurobi version mismatch between Java 9.5.1 and C library 9.5.2
Warning: Gurobi version mismatch between Java 9.5.1 and Jni 9.5.2
Gurobi Optimizer version 9.5.2 build v9.5.2rc0 (linux64)
Thread count: 2 physical cores, 4 logical processors, using up to 4 threads
Optimize a model with 18147 rows, 1750 columns and 66120 nonzeros
Model fingerprint: 0xea5ac313
Variable types: 0 continuous, 1750 integer (1750 binary)
Coefficient statistics:
  Matrix range     [1e+00, 1e+01]
  Objective range  [2e+01, 2e+01]
  Bounds range     [1e+00, 1e+00]
  RHS range        [1e+00, 1e+02]
Presolve removed 10480 rows and 560 columns
Presolve time: 0.62s
Presolved: 7667 rows, 1190 columns, 28630 nonzeros
Variable types: 0 continuous, 1190 integer (1190 binary)

Use crossover to convert LP symmetric solution to basic solution...

Root relaxation: objective 8.200000e+03, 713 iterations, 0.12 seconds (0.03 work units)

    Nodes    |    Current Node    |     Objective Bounds      |     Work
 Expl Unexpl |  Obj  Depth IntInf | Incumbent    BestBd   Gap | It/Node Time

H    0     0                    8200.0000000    0.00000   100%     -    0s
     0     0          -    0      8200.00000 8200.00000  0.00%     -    0s

Explored 1 nodes (1400 simplex iterations) in 0.99 seconds (0.29 work units)
Thread count was 4 (of 4 available processors)

Solution count 1: 8200 

Optimal solution found (tolerance 1.00e-04)
Best objective 8.200000000000e+03, best bound 8.200000000000e+03, gap 0.0000%
Warning: linear constraint 1991 and linear constraint 1992 have the same name "vincoloPausaMinimaTraTurni_giorno0_dip0_int3"

Gurobi 9.5.2 (linux64, Java) logging started gio 9 feb 2023, 01:08:55

Set parameter Username
Academic license - for non-commercial use only - expires 2023-12-01
Warning: Gurobi version mismatch between Java 9.5.1 and C library 9.5.2
Warning: Gurobi version mismatch between Java 9.5.1 and Jni 9.5.2
Gurobi Optimizer version 9.5.2 build v9.5.2rc0 (linux64)
Thread count: 2 physical cores, 4 logical processors, using up to 4 threads
Optimize a model with 18147 rows, 1750 columns and 66120 nonzeros
Model fingerprint: 0xea5ac313
Variable types: 0 continuous, 1750 integer (1750 binary)
Coefficient statistics:
  Matrix range     [1e+00, 1e+01]
  Objective range  [2e+01, 2e+01]
  Bounds range     [1e+00, 1e+00]
  RHS range        [1e+00, 1e+02]
Presolve removed 10480 rows and 560 columns
Presolve time: 0.25s
Presolved: 7667 rows, 1190 columns, 28630 nonzeros
Variable types: 0 continuous, 1190 integer (1190 binary)

Use crossover to convert LP symmetric solution to basic solution...

Root relaxation: objective 8.200000e+03, 713 iterations, 0.09 seconds (0.03 work units)

    Nodes    |    Current Node    |     Objective Bounds      |     Work
 Expl Unexpl |  Obj  Depth IntInf | Incumbent    BestBd   Gap | It/Node Time

H    0     0                    8200.0000000    0.00000   100%     -    0s
     0     0          -    0      8200.00000 8200.00000  0.00%     -    0s

Explored 1 nodes (1400 simplex iterations) in 0.60 seconds (0.29 work units)
Thread count was 4 (of 4 available processors)

Solution count 1: 8200 

Optimal solution found (tolerance 1.00e-04)
Best objective 8.200000000000e+03, best bound 8.200000000000e+03, gap 0.0000%
Warning: linear constraint 1991 and linear constraint 1992 have the same name "vincoloPausaMinimaTraTurni_giorno0_dip0_int3"

Gurobi 9.5.2 (linux64, Java) logging started gio 9 feb 2023, 01:10:51

Set parameter Username
Academic license - for non-commercial use only - expires 2023-12-01
Warning: Gurobi version mismatch between Java 9.5.1 and C library 9.5.2
Warning: Gurobi version mismatch between Java 9.5.1 and Jni 9.5.2
Gurobi Optimizer version 9.5.2 build v9.5.2rc0 (linux64)
Thread count: 2 physical cores, 4 logical processors, using up to 4 threads
Optimize a model with 18147 rows, 1750 columns and 66120 nonzeros
Model fingerprint: 0xea5ac313
Variable types: 0 continuous, 1750 integer (1750 binary)
Coefficient statistics:
  Matrix range     [1e+00, 1e+01]
  Objective range  [2e+01, 2e+01]
  Bounds range     [1e+00, 1e+00]
  RHS range        [1e+00, 1e+02]
Presolve removed 10480 rows and 560 columns
Presolve time: 0.22s
Presolved: 7667 rows, 1190 columns, 28630 nonzeros
Variable types: 0 continuous, 1190 integer (1190 binary)

Use crossover to convert LP symmetric solution to basic solution...

Root relaxation: objective 8.200000e+03, 713 iterations, 0.08 seconds (0.03 work units)

    Nodes    |    Current Node    |     Objective Bounds      |     Work
 Expl Unexpl |  Obj  Depth IntInf | Incumbent    BestBd   Gap | It/Node Time

H    0     0                    8200.0000000    0.00000   100%     -    0s
     0     0          -    0      8200.00000 8200.00000  0.00%     -    0s

Explored 1 nodes (1400 simplex iterations) in 0.53 seconds (0.29 work units)
Thread count was 4 (of 4 available processors)

Solution count 1: 8200 

Optimal solution found (tolerance 1.00e-04)
Best objective 8.200000000000e+03, best bound 8.200000000000e+03, gap 0.0000%
Warning: linear constraint 1991 and linear constraint 1992 have the same name "vincoloPausaMinimaTraTurni_giorno0_dip0_int3"

Gurobi 9.5.2 (linux64, Java) logging started gio 9 feb 2023, 01:18:47

Set parameter Username
Academic license - for non-commercial use only - expires 2023-12-01
Warning: Gurobi version mismatch between Java 9.5.1 and C library 9.5.2
Warning: Gurobi version mismatch between Java 9.5.1 and Jni 9.5.2
Gurobi Optimizer version 9.5.2 build v9.5.2rc0 (linux64)
Thread count: 2 physical cores, 4 logical processors, using up to 4 threads
Optimize a model with 18147 rows, 1750 columns and 66120 nonzeros
Model fingerprint: 0xea5ac313
Variable types: 0 continuous, 1750 integer (1750 binary)
Coefficient statistics:
  Matrix range     [1e+00, 1e+01]
  Objective range  [2e+01, 2e+01]
  Bounds range     [1e+00, 1e+00]
  RHS range        [1e+00, 1e+02]
Presolve removed 10480 rows and 560 columns
Presolve time: 0.26s
Presolved: 7667 rows, 1190 columns, 28630 nonzeros
Variable types: 0 continuous, 1190 integer (1190 binary)

Use crossover to convert LP symmetric solution to basic solution...

Root relaxation: objective 8.200000e+03, 713 iterations, 0.09 seconds (0.03 work units)

    Nodes    |    Current Node    |     Objective Bounds      |     Work
 Expl Unexpl |  Obj  Depth IntInf | Incumbent    BestBd   Gap | It/Node Time

H    0     0                    8200.0000000    0.00000   100%     -    0s
     0     0          -    0      8200.00000 8200.00000  0.00%     -    0s

Explored 1 nodes (1400 simplex iterations) in 0.55 seconds (0.29 work units)
Thread count was 4 (of 4 available processors)

Solution count 1: 8200 

Optimal solution found (tolerance 1.00e-04)
Best objective 8.200000000000e+03, best bound 8.200000000000e+03, gap 0.0000%

Gurobi 9.5.2 (linux64, Java) logging started gio 9 feb 2023, 02:31:09

Set parameter Username
Academic license - for non-commercial use only - expires 2023-12-01
Warning: Gurobi version mismatch between Java 9.5.1 and C library 9.5.2
Warning: Gurobi version mismatch between Java 9.5.1 and Jni 9.5.2
Set parameter Presolve to value 0
Gurobi Optimizer version 9.5.2 build v9.5.2rc0 (linux64)
Thread count: 2 physical cores, 4 logical processors, using up to 4 threads
Optimize a model with 18147 rows, 1750 columns and 66120 nonzeros
Model fingerprint: 0xea5ac313
Variable types: 0 continuous, 1750 integer (1750 binary)
Coefficient statistics:
  Matrix range     [1e+00, 1e+01]
  Objective range  [2e+01, 2e+01]
  Bounds range     [1e+00, 1e+00]
  RHS range        [1e+00, 1e+02]
Variable types: 0 continuous, 1750 integer (1750 binary)

Root relaxation: objective 8.200000e+03, 1245 iterations, 0.17 seconds (0.08 work units)

    Nodes    |    Current Node    |     Objective Bounds      |     Work
 Expl Unexpl |  Obj  Depth IntInf | Incumbent    BestBd   Gap | It/Node Time

H    0     0                    8200.0000000    0.00000   100%     -    0s
     0     0          -    0      8200.00000 8200.00000  0.00%     -    0s

Explored 1 nodes (1843 simplex iterations) in 0.56 seconds (0.18 work units)
Thread count was 4 (of 4 available processors)

Solution count 1: 8200 

Optimal solution found (tolerance 1.00e-04)
Best objective 8.200000000000e+03, best bound 8.200000000000e+03, gap 0.0000%
Gurobi Optimizer version 9.5.2 build v9.5.2rc0 (linux64)
Thread count: 2 physical cores, 4 logical processors, using up to 4 threads
Optimize a model with 18147 rows, 1750 columns and 66120 nonzeros
Model fingerprint: 0xea5ac313
Variable types: 0 continuous, 1750 integer (1750 binary)
Coefficient statistics:
  Matrix range     [1e+00, 1e+01]
  Objective range  [2e+01, 2e+01]
  Bounds range     [1e+00, 1e+00]
  RHS range        [1e+00, 1e+02]

Loaded MIP start from previous solve with objective 8200

Variable types: 0 continuous, 1750 integer (1750 binary)

Root relaxation: cutoff, 9 iterations, 0.11 seconds (0.00 work units)

    Nodes    |    Current Node    |     Objective Bounds      |     Work
 Expl Unexpl |  Obj  Depth IntInf | Incumbent    BestBd   Gap | It/Node Time

     0     0     cutoff    0      8200.00000 8200.00000  0.00%     -    0s

Explored 1 nodes (9 simplex iterations) in 0.23 seconds (0.01 work units)
Thread count was 4 (of 4 available processors)

Solution count 1: 8200 

Optimal solution found (tolerance 1.00e-04)
Best objective 8.200000000000e+03, best bound 8.200000000000e+03, gap 0.0000%

Gurobi 9.5.2 (linux64, Java) logging started gio 9 feb 2023, 02:35:54

Set parameter Username
Academic license - for non-commercial use only - expires 2023-12-01
Warning: Gurobi version mismatch between Java 9.5.1 and C library 9.5.2
Warning: Gurobi version mismatch between Java 9.5.1 and Jni 9.5.2
Presolve removed 10480 rows and 560 columns
Presolve time: 0.36s
Gurobi Optimizer version 9.5.2 build v9.5.2rc0 (linux64)
Thread count: 2 physical cores, 4 logical processors, using up to 4 threads
Optimize a model with 18147 rows, 1750 columns and 66120 nonzeros
Model fingerprint: 0xea5ac313
Variable types: 0 continuous, 1750 integer (1750 binary)
Coefficient statistics:
  Matrix range     [1e+00, 1e+01]
  Objective range  [2e+01, 2e+01]
  Bounds range     [1e+00, 1e+00]
  RHS range        [1e+00, 1e+02]
Presolve removed 10480 rows and 560 columns
Presolve time: 0.22s
Presolved: 7667 rows, 1190 columns, 28630 nonzeros
Variable types: 0 continuous, 1190 integer (1190 binary)

Use crossover to convert LP symmetric solution to basic solution...

Root relaxation: objective 8.200000e+03, 713 iterations, 0.10 seconds (0.03 work units)

    Nodes    |    Current Node    |     Objective Bounds      |     Work
 Expl Unexpl |  Obj  Depth IntInf | Incumbent    BestBd   Gap | It/Node Time

H    0     0                    8200.0000000    0.00000   100%     -    0s
     0     0          -    0      8200.00000 8200.00000  0.00%     -    0s

Explored 1 nodes (1400 simplex iterations) in 0.44 seconds (0.29 work units)
Thread count was 4 (of 4 available processors)

Solution count 1: 8200 

Optimal solution found (tolerance 1.00e-04)
Best objective 8.200000000000e+03, best bound 8.200000000000e+03, gap 0.0000%

Gurobi 9.5.2 (linux64, Java) logging started gio 9 feb 2023, 02:39:43

Set parameter Username
Academic license - for non-commercial use only - expires 2023-12-01
Warning: Gurobi version mismatch between Java 9.5.1 and C library 9.5.2
Warning: Gurobi version mismatch between Java 9.5.1 and Jni 9.5.2
Set parameter Presolve to value 0
Gurobi Optimizer version 9.5.2 build v9.5.2rc0 (linux64)
Thread count: 2 physical cores, 4 logical processors, using up to 4 threads
Optimize a model with 18147 rows, 1750 columns and 66120 nonzeros
Model fingerprint: 0xea5ac313
Variable types: 0 continuous, 1750 integer (1750 binary)
Coefficient statistics:
  Matrix range     [1e+00, 1e+01]
  Objective range  [2e+01, 2e+01]
  Bounds range     [1e+00, 1e+00]
  RHS range        [1e+00, 1e+02]
Variable types: 0 continuous, 1750 integer (1750 binary)

Root relaxation: objective 8.200000e+03, 1245 iterations, 0.16 seconds (0.08 work units)

    Nodes    |    Current Node    |     Objective Bounds      |     Work
 Expl Unexpl |  Obj  Depth IntInf | Incumbent    BestBd   Gap | It/Node Time

H    0     0                    8200.0000000    0.00000   100%     -    0s
     0     0          -    0      8200.00000 8200.00000  0.00%     -    0s

Explored 1 nodes (1843 simplex iterations) in 0.47 seconds (0.18 work units)
Thread count was 4 (of 4 available processors)

Solution count 1: 8200 

Optimal solution found (tolerance 1.00e-04)
Best objective 8.200000000000e+03, best bound 8.200000000000e+03, gap 0.0000%
Gurobi Optimizer version 9.5.2 build v9.5.2rc0 (linux64)
Thread count: 2 physical cores, 4 logical processors, using up to 4 threads
Optimize a model with 18147 rows, 1750 columns and 66120 nonzeros
Model fingerprint: 0xea5ac313
Variable types: 0 continuous, 1750 integer (1750 binary)
Coefficient statistics:
  Matrix range     [1e+00, 1e+01]
  Objective range  [2e+01, 2e+01]
  Bounds range     [1e+00, 1e+00]
  RHS range        [1e+00, 1e+02]

Loaded MIP start from previous solve with objective 8200

Variable types: 0 continuous, 1750 integer (1750 binary)

Root relaxation: cutoff, 9 iterations, 0.12 seconds (0.00 work units)

    Nodes    |    Current Node    |     Objective Bounds      |     Work
 Expl Unexpl |  Obj  Depth IntInf | Incumbent    BestBd   Gap | It/Node Time

     0     0     cutoff    0      8200.00000 8200.00000  0.00%     -    0s

Explored 1 nodes (9 simplex iterations) in 0.32 seconds (0.01 work units)
Thread count was 4 (of 4 available processors)

Solution count 1: 8200 

Optimal solution found (tolerance 1.00e-04)
Best objective 8.200000000000e+03, best bound 8.200000000000e+03, gap 0.0000%

Gurobi 9.5.2 (linux64, Java) logging started gio 9 feb 2023, 02:41:30

Set parameter Username
Academic license - for non-commercial use only - expires 2023-12-01
Warning: Gurobi version mismatch between Java 9.5.1 and C library 9.5.2
Warning: Gurobi version mismatch between Java 9.5.1 and Jni 9.5.2
Presolve removed 10480 rows and 560 columns
Presolve time: 0.43s
Gurobi Optimizer version 9.5.2 build v9.5.2rc0 (linux64)
Thread count: 2 physical cores, 4 logical processors, using up to 4 threads
Optimize a model with 18147 rows, 1750 columns and 66120 nonzeros
Model fingerprint: 0xea5ac313
Variable types: 0 continuous, 1750 integer (1750 binary)
Coefficient statistics:
  Matrix range     [1e+00, 1e+01]
  Objective range  [2e+01, 2e+01]
  Bounds range     [1e+00, 1e+00]
  RHS range        [1e+00, 1e+02]
Presolve removed 10480 rows and 560 columns
Presolve time: 0.22s
Presolved: 7667 rows, 1190 columns, 28630 nonzeros
Variable types: 0 continuous, 1190 integer (1190 binary)

Use crossover to convert LP symmetric solution to basic solution...

Root relaxation: objective 8.200000e+03, 713 iterations, 0.08 seconds (0.03 work units)

    Nodes    |    Current Node    |     Objective Bounds      |     Work
 Expl Unexpl |  Obj  Depth IntInf | Incumbent    BestBd   Gap | It/Node Time

H    0     0                    8200.0000000    0.00000   100%     -    0s
     0     0          -    0      8200.00000 8200.00000  0.00%     -    0s

Explored 1 nodes (1400 simplex iterations) in 0.43 seconds (0.29 work units)
Thread count was 4 (of 4 available processors)

Solution count 1: 8200 

Optimal solution found (tolerance 1.00e-04)
Best objective 8.200000000000e+03, best bound 8.200000000000e+03, gap 0.0000%
Gurobi Optimizer version 9.5.2 build v9.5.2rc0 (linux64)
Thread count: 2 physical cores, 4 logical processors, using up to 4 threads
Optimize a model with 18147 rows, 1750 columns and 66120 nonzeros
Model fingerprint: 0xea5ac313
Variable types: 0 continuous, 1750 integer (1750 binary)
Coefficient statistics:
  Matrix range     [1e+00, 1e+01]
  Objective range  [2e+01, 2e+01]
  Bounds range     [1e+00, 1e+00]
  RHS range        [1e+00, 1e+02]

Loaded MIP start from previous solve with objective 8200

Presolve removed 10480 rows and 560 columns
Presolve time: 0.35s
Presolved: 7667 rows, 1190 columns, 28630 nonzeros
Variable types: 0 continuous, 1190 integer (1190 binary)

Root relaxation: cutoff, 130 iterations, 0.06 seconds (0.02 work units)

    Nodes    |    Current Node    |     Objective Bounds      |     Work
 Expl Unexpl |  Obj  Depth IntInf | Incumbent    BestBd   Gap | It/Node Time

     0     0     cutoff    0      8200.00000 8200.00000  0.00%     -    0s

Explored 1 nodes (130 simplex iterations) in 0.44 seconds (0.21 work units)
Thread count was 4 (of 4 available processors)

Solution count 1: 8200 

Optimal solution found (tolerance 1.00e-04)
Best objective 8.200000000000e+03, best bound 8.200000000000e+03, gap 0.0000%

Gurobi 9.5.2 (linux64, Java) logging started gio 9 feb 2023, 02:44:21

Set parameter Username
Academic license - for non-commercial use only - expires 2023-12-01
Warning: Gurobi version mismatch between Java 9.5.1 and C library 9.5.2
Warning: Gurobi version mismatch between Java 9.5.1 and Jni 9.5.2
Set parameter Presolve to value 1
Presolve removed 10410 rows and 560 columns
Presolve time: 0.22s
Gurobi Optimizer version 9.5.2 build v9.5.2rc0 (linux64)
Thread count: 2 physical cores, 4 logical processors, using up to 4 threads
Optimize a model with 18147 rows, 1750 columns and 66120 nonzeros
Model fingerprint: 0xea5ac313
Variable types: 0 continuous, 1750 integer (1750 binary)
Coefficient statistics:
  Matrix range     [1e+00, 1e+01]
  Objective range  [2e+01, 2e+01]
  Bounds range     [1e+00, 1e+00]
  RHS range        [1e+00, 1e+02]
Presolve removed 10410 rows and 560 columns
Presolve time: 0.15s
Presolved: 7737 rows, 1190 columns, 29750 nonzeros
Variable types: 0 continuous, 1190 integer (1190 binary)

Use crossover to convert LP symmetric solution to basic solution...

Root relaxation: objective 8.200000e+03, 689 iterations, 0.07 seconds (0.03 work units)

    Nodes    |    Current Node    |     Objective Bounds      |     Work
 Expl Unexpl |  Obj  Depth IntInf | Incumbent    BestBd   Gap | It/Node Time

H    0     0                    8200.0000000    0.00000   100%     -    0s
     0     0          -    0      8200.00000 8200.00000  0.00%     -    0s

Explored 1 nodes (1298 simplex iterations) in 0.36 seconds (0.20 work units)
Thread count was 4 (of 4 available processors)

Solution count 1: 8200 

Optimal solution found (tolerance 1.00e-04)
Best objective 8.200000000000e+03, best bound 8.200000000000e+03, gap 0.0000%
Gurobi Optimizer version 9.5.2 build v9.5.2rc0 (linux64)
Thread count: 2 physical cores, 4 logical processors, using up to 4 threads
Optimize a model with 18147 rows, 1750 columns and 66120 nonzeros
Model fingerprint: 0xea5ac313
Variable types: 0 continuous, 1750 integer (1750 binary)
Coefficient statistics:
  Matrix range     [1e+00, 1e+01]
  Objective range  [2e+01, 2e+01]
  Bounds range     [1e+00, 1e+00]
  RHS range        [1e+00, 1e+02]

Loaded MIP start from previous solve with objective 8200

Presolve removed 10410 rows and 560 columns
Presolve time: 0.20s
Presolved: 7737 rows, 1190 columns, 29750 nonzeros
Variable types: 0 continuous, 1190 integer (1190 binary)

Root relaxation: cutoff, 106 iterations, 0.03 seconds (0.02 work units)

    Nodes    |    Current Node    |     Objective Bounds      |     Work
 Expl Unexpl |  Obj  Depth IntInf | Incumbent    BestBd   Gap | It/Node Time

     0     0     cutoff    0      8200.00000 8200.00000  0.00%     -    0s

Explored 1 nodes (106 simplex iterations) in 0.24 seconds (0.13 work units)
Thread count was 4 (of 4 available processors)

Solution count 1: 8200 

Optimal solution found (tolerance 1.00e-04)
Best objective 8.200000000000e+03, best bound 8.200000000000e+03, gap 0.0000%

Gurobi 9.5.2 (linux64, Java) logging started gio 9 feb 2023, 02:44:48

Set parameter Username
Academic license - for non-commercial use only - expires 2023-12-01
Warning: Gurobi version mismatch between Java 9.5.1 and C library 9.5.2
Warning: Gurobi version mismatch between Java 9.5.1 and Jni 9.5.2
Set parameter Presolve to value 2
Presolve removed 10480 rows and 560 columns
Presolve time: 0.40s
Gurobi Optimizer version 9.5.2 build v9.5.2rc0 (linux64)
Thread count: 2 physical cores, 4 logical processors, using up to 4 threads
Optimize a model with 18147 rows, 1750 columns and 66120 nonzeros
Model fingerprint: 0xea5ac313
Variable types: 0 continuous, 1750 integer (1750 binary)
Coefficient statistics:
  Matrix range     [1e+00, 1e+01]
  Objective range  [2e+01, 2e+01]
  Bounds range     [1e+00, 1e+00]
  RHS range        [1e+00, 1e+02]
Presolve removed 10480 rows and 560 columns
Presolve time: 0.37s
Presolved: 7667 rows, 1190 columns, 33670 nonzeros
Variable types: 0 continuous, 1190 integer (1190 binary)
Root relaxation presolve removed 10 rows and 0 columns
Root relaxation presolved: 7657 rows, 1200 columns, 32560 nonzeros


Use crossover to convert LP symmetric solution to basic solution...

Root relaxation: objective 8.200000e+03, 920 iterations, 0.10 seconds (0.05 work units)

    Nodes    |    Current Node    |     Objective Bounds      |     Work
 Expl Unexpl |  Obj  Depth IntInf | Incumbent    BestBd   Gap | It/Node Time

     0     0 8200.00000    0   25          - 8200.00000      -     -    0s
     0     0 8200.00000    0  103          - 8200.00000      -     -    1s
     0     0 8200.00000    0  103          - 8200.00000      -     -    1s
H    0     0                    8200.0000000 8200.00000  0.00%     -    1s
     0     0 8200.00000    0   53 8200.00000 8200.00000  0.00%     -    1s

Cutting planes:
  Gomory: 13
  Cover: 24
  Implied bound: 7
  Clique: 18
  MIR: 51
  StrongCG: 2
  Zero half: 8
  RLT: 9
  PSD: 1

Explored 1 nodes (4248 simplex iterations) in 1.34 seconds (0.67 work units)
Thread count was 4 (of 4 available processors)

Solution count 1: 8200 

Optimal solution found (tolerance 1.00e-04)
Best objective 8.200000000000e+03, best bound 8.200000000000e+03, gap 0.0000%
Gurobi Optimizer version 9.5.2 build v9.5.2rc0 (linux64)
Thread count: 2 physical cores, 4 logical processors, using up to 4 threads
Optimize a model with 18147 rows, 1750 columns and 66120 nonzeros
Model fingerprint: 0xea5ac313
Variable types: 0 continuous, 1750 integer (1750 binary)
Coefficient statistics:
  Matrix range     [1e+00, 1e+01]
  Objective range  [2e+01, 2e+01]
  Bounds range     [1e+00, 1e+00]
  RHS range        [1e+00, 1e+02]

Loaded MIP start from previous solve with objective 8200

Presolve removed 10480 rows and 560 columns
Presolve time: 0.43s
Presolved: 7667 rows, 1190 columns, 33670 nonzeros
Variable types: 0 continuous, 1190 integer (1190 binary)
Root relaxation presolve removed 10 rows and 0 columns
Root relaxation presolved: 7657 rows, 1200 columns, 32560 nonzeros


Root relaxation: cutoff, 148 iterations, 0.06 seconds (0.04 work units)

    Nodes    |    Current Node    |     Objective Bounds      |     Work
 Expl Unexpl |  Obj  Depth IntInf | Incumbent    BestBd   Gap | It/Node Time

     0     0     cutoff    0      8200.00000 8200.00000  0.00%     -    0s

Explored 1 nodes (148 simplex iterations) in 0.50 seconds (0.31 work units)
Thread count was 4 (of 4 available processors)

Solution count 1: 8200 

Optimal solution found (tolerance 1.00e-04)
Best objective 8.200000000000e+03, best bound 8.200000000000e+03, gap 0.0000%

Gurobi 9.5.2 (linux64, Java) logging started gio 9 feb 2023, 02:45:05

Set parameter Username
Academic license - for non-commercial use only - expires 2023-12-01
Warning: Gurobi version mismatch between Java 9.5.1 and C library 9.5.2
Warning: Gurobi version mismatch between Java 9.5.1 and Jni 9.5.2
Set parameter Presolve to value 2
Presolve removed 10480 rows and 560 columns
Presolve time: 0.43s
Gurobi Optimizer version 9.5.2 build v9.5.2rc0 (linux64)
Thread count: 2 physical cores, 4 logical processors, using up to 4 threads
Optimize a model with 18147 rows, 1750 columns and 66120 nonzeros
Model fingerprint: 0xea5ac313
Variable types: 0 continuous, 1750 integer (1750 binary)
Coefficient statistics:
  Matrix range     [1e+00, 1e+01]
  Objective range  [2e+01, 2e+01]
  Bounds range     [1e+00, 1e+00]
  RHS range        [1e+00, 1e+02]
Presolve removed 10480 rows and 560 columns
Presolve time: 0.29s
Presolved: 7667 rows, 1190 columns, 33670 nonzeros
Variable types: 0 continuous, 1190 integer (1190 binary)
Root relaxation presolve removed 10 rows and 0 columns
Root relaxation presolved: 7657 rows, 1200 columns, 32560 nonzeros


Use crossover to convert LP symmetric solution to basic solution...

Root relaxation: objective 8.200000e+03, 920 iterations, 0.10 seconds (0.05 work units)

    Nodes    |    Current Node    |     Objective Bounds      |     Work
 Expl Unexpl |  Obj  Depth IntInf | Incumbent    BestBd   Gap | It/Node Time

     0     0 8200.00000    0   25          - 8200.00000      -     -    0s
     0     0 8200.00000    0  103          - 8200.00000      -     -    1s
     0     0 8200.00000    0  103          - 8200.00000      -     -    1s
H    0     0                    8200.0000000 8200.00000  0.00%     -    1s
     0     0 8200.00000    0   53 8200.00000 8200.00000  0.00%     -    1s

Cutting planes:
  Gomory: 13
  Cover: 24
  Implied bound: 7
  Clique: 18
  MIR: 51
  StrongCG: 2
  Zero half: 8
  RLT: 9
  PSD: 1

Explored 1 nodes (4248 simplex iterations) in 1.22 seconds (0.67 work units)
Thread count was 4 (of 4 available processors)

Solution count 1: 8200 

Optimal solution found (tolerance 1.00e-04)
Best objective 8.200000000000e+03, best bound 8.200000000000e+03, gap 0.0000%
